g9 1 1 0 3 20190616 0 4 0 240	# problem tp111
 10 3 1 0 3	# vars, constraints, objectives, ranges, eqns
 3 1	# nonlinear constraints, objectives
 0 0	# network constraints: nonlinear, linear
 10 10 10	# nonlinear vars in constraints, objectives, both
 0 0 0 1	# linear network variables; functions; arith, flags
 0 0 0 0 0	# discrete variables: binary, integer, nonlinear (b,c,o)
 14 10	# nonzeros in Jacobian, gradients
 0 0	# max name lengths: constraints, variables
 0 0 0 0 22	# common exprs: b,c,o,c1,o1
b
0 -100 100
0 -100 100
0 -100 100
0 -100 100
0 -100 100
0 -100 100
0 -100 100
0 -100 100
0 -100 100
0 -100 100
x10
0 -2.3
1 -2.3
2 -2.3
3 -2.3
4 -2.3
5 -2.3
6 -2.3
7 -2.3
8 -2.3
9 -2.3
r
4 -2
4 -1
4 -1
C0
o54
5
o16
o44
v0
o2
n-2
o44
v1
o2
n-2
o44
v2
o16
o44
v5
o16
o44
v9
C1
o16
o54
4
o44
v3
o16
o2
n-2
o44
v4
o44
v5
o44
v6
C2
o16
o54
5
o44
v2
o44
v6
o44
v7
o16
o2
n-2
o44
v8
o44
v9
V10 0 4
o44
v0
V11 0 4
o0
v10
o44
v1
V12 0 4
o0
v11
o44
v2
V13 0 4
o0
v12
o44
v3
V14 0 4
o0
v13
o44
v4
V15 0 4
o0
v14
o44
v5
V16 0 4
o0
v15
o44
v6
V17 0 4
o0
v16
o44
v7
V18 0 4
o0
v17
o44
v8
V19 0 4
o0
v18
o44
v9
V20 0 4
o43
v19
V21 0 4
o2
o44
v0
o1
o0
n-6.089
v0
v20
V22 0 4
o0
v21
o2
o44
v1
o1
o0
n-17.164
v1
v20
V23 0 4
o0
v22
o2
o44
v2
o1
o0
n-34.054
v2
v20
V24 0 4
o0
v23
o2
o44
v3
o1
o0
n-5.914
v3
v20
V25 0 4
o0
v24
o2
o44
v4
o1
o0
n-24.721
v4
v20
V26 0 4
o0
v25
o2
o44
v5
o1
o0
n-14.986
v5
v20
V27 0 4
o0
v26
o2
o44
v6
o1
o0
n-24.1
v6
v20
V28 0 4
o0
v27
o2
o44
v7
o1
o0
n-10.708
v7
v20
V29 0 4
o0
v28
o2
o44
v8
o1
o0
n-26.662
v8
v20
V30 0 4
o0
v29
o2
o44
v9
o1
o0
n-22.179
v9
v20
V31 0 4
v30
O0 0
v31
k9
1
2
4
5
6
8
10
11
12
J0 5
0 0
1 0
2 0
5 0
9 0
J1 4
3 0
4 0
5 0
6 0
J2 5
2 0
6 0
7 0
8 0
9 0
G0 10
0 0
1 0
2 0
3 0
4 0
5 0
6 0
7 0
8 0
9 0
